(set-logic QF_LRA)
(declare-fun X0 () Real )
(declare-fun Y0 () Real )
(declare-fun X1 () Real )
(declare-fun Y1 () Real )
(declare-fun X2 () Real )
(declare-fun Y2 () Real )
(declare-fun X3 () Real )
(declare-fun Y3 () Real )
(declare-fun X4 () Real )
(declare-fun Y4 () Real )
(declare-fun X5 () Real )
(declare-fun Y5 () Real )
(declare-fun X6 () Real )
(declare-fun Y6 () Real )
(declare-fun X7 () Real )
(declare-fun Y7 () Real )
(declare-fun X8 () Real )
(declare-fun Y8 () Real )
(declare-fun Z () Real )
(declare-fun k () Real )
(assert (let
(( $goal (>= Z k) ))
(let
((
$phi ( and 
( or ( <= ( + X0 76 ) X1 )  ( <= ( + X1 53 ) X0 )  ( <= ( + Y0 17 ) Y1 )  ( <= ( + Y1 51 ) Y0 )  )
( or ( <= ( + X0 76 ) X2 )  ( <= ( + X2 13 ) X0 )  ( <= ( + Y0 17 ) Y2 )  ( <= ( + Y2 100 ) Y0 )  )
( or ( <= ( + X0 76 ) X3 )  ( <= ( + X3 56 ) X0 )  ( <= ( + Y0 17 ) Y3 )  ( <= ( + Y3 15 ) Y0 )  )
( or ( <= ( + X0 76 ) X4 )  ( <= ( + X4 61 ) X0 )  ( <= ( + Y0 17 ) Y4 )  ( <= ( + Y4 75 ) Y0 )  )
( or ( <= ( + X0 76 ) X5 )  ( <= ( + X5 85 ) X0 )  ( <= ( + Y0 17 ) Y5 )  ( <= ( + Y5 30 ) Y0 )  )
( or ( <= ( + X0 76 ) X6 )  ( <= ( + X6 70 ) X0 )  ( <= ( + Y0 17 ) Y6 )  ( <= ( + Y6 7 ) Y0 )  )
( or ( <= ( + X0 76 ) X7 )  ( <= ( + X7 48 ) X0 )  ( <= ( + Y0 17 ) Y7 )  ( <= ( + Y7 31 ) Y0 )  )
( or ( <= ( + X0 76 ) X8 )  ( <= ( + X8 75 ) X0 )  ( <= ( + Y0 17 ) Y8 )  ( <= ( + Y8 81 ) Y0 )  )
( or ( <= ( + X1 53 ) X2 )  ( <= ( + X2 13 ) X1 )  ( <= ( + Y1 51 ) Y2 )  ( <= ( + Y2 100 ) Y1 )  )
( or ( <= ( + X1 53 ) X3 )  ( <= ( + X3 56 ) X1 )  ( <= ( + Y1 51 ) Y3 )  ( <= ( + Y3 15 ) Y1 )  )
( or ( <= ( + X1 53 ) X4 )  ( <= ( + X4 61 ) X1 )  ( <= ( + Y1 51 ) Y4 )  ( <= ( + Y4 75 ) Y1 )  )
( or ( <= ( + X1 53 ) X5 )  ( <= ( + X5 85 ) X1 )  ( <= ( + Y1 51 ) Y5 )  ( <= ( + Y5 30 ) Y1 )  )
( or ( <= ( + X1 53 ) X6 )  ( <= ( + X6 70 ) X1 )  ( <= ( + Y1 51 ) Y6 )  ( <= ( + Y6 7 ) Y1 )  )
( or ( <= ( + X1 53 ) X7 )  ( <= ( + X7 48 ) X1 )  ( <= ( + Y1 51 ) Y7 )  ( <= ( + Y7 31 ) Y1 )  )
( or ( <= ( + X1 53 ) X8 )  ( <= ( + X8 75 ) X1 )  ( <= ( + Y1 51 ) Y8 )  ( <= ( + Y8 81 ) Y1 )  )
( or ( <= ( + X2 13 ) X3 )  ( <= ( + X3 56 ) X2 )  ( <= ( + Y2 100 ) Y3 )  ( <= ( + Y3 15 ) Y2 )  )
( or ( <= ( + X2 13 ) X4 )  ( <= ( + X4 61 ) X2 )  ( <= ( + Y2 100 ) Y4 )  ( <= ( + Y4 75 ) Y2 )  )
( or ( <= ( + X2 13 ) X5 )  ( <= ( + X5 85 ) X2 )  ( <= ( + Y2 100 ) Y5 )  ( <= ( + Y5 30 ) Y2 )  )
( or ( <= ( + X2 13 ) X6 )  ( <= ( + X6 70 ) X2 )  ( <= ( + Y2 100 ) Y6 )  ( <= ( + Y6 7 ) Y2 )  )
( or ( <= ( + X2 13 ) X7 )  ( <= ( + X7 48 ) X2 )  ( <= ( + Y2 100 ) Y7 )  ( <= ( + Y7 31 ) Y2 )  )
( or ( <= ( + X2 13 ) X8 )  ( <= ( + X8 75 ) X2 )  ( <= ( + Y2 100 ) Y8 )  ( <= ( + Y8 81 ) Y2 )  )
( or ( <= ( + X3 56 ) X4 )  ( <= ( + X4 61 ) X3 )  ( <= ( + Y3 15 ) Y4 )  ( <= ( + Y4 75 ) Y3 )  )
( or ( <= ( + X3 56 ) X5 )  ( <= ( + X5 85 ) X3 )  ( <= ( + Y3 15 ) Y5 )  ( <= ( + Y5 30 ) Y3 )  )
( or ( <= ( + X3 56 ) X6 )  ( <= ( + X6 70 ) X3 )  ( <= ( + Y3 15 ) Y6 )  ( <= ( + Y6 7 ) Y3 )  )
( or ( <= ( + X3 56 ) X7 )  ( <= ( + X7 48 ) X3 )  ( <= ( + Y3 15 ) Y7 )  ( <= ( + Y7 31 ) Y3 )  )
( or ( <= ( + X3 56 ) X8 )  ( <= ( + X8 75 ) X3 )  ( <= ( + Y3 15 ) Y8 )  ( <= ( + Y8 81 ) Y3 )  )
( or ( <= ( + X4 61 ) X5 )  ( <= ( + X5 85 ) X4 )  ( <= ( + Y4 75 ) Y5 )  ( <= ( + Y5 30 ) Y4 )  )
( or ( <= ( + X4 61 ) X6 )  ( <= ( + X6 70 ) X4 )  ( <= ( + Y4 75 ) Y6 )  ( <= ( + Y6 7 ) Y4 )  )
( or ( <= ( + X4 61 ) X7 )  ( <= ( + X7 48 ) X4 )  ( <= ( + Y4 75 ) Y7 )  ( <= ( + Y7 31 ) Y4 )  )
( or ( <= ( + X4 61 ) X8 )  ( <= ( + X8 75 ) X4 )  ( <= ( + Y4 75 ) Y8 )  ( <= ( + Y8 81 ) Y4 )  )
( or ( <= ( + X5 85 ) X6 )  ( <= ( + X6 70 ) X5 )  ( <= ( + Y5 30 ) Y6 )  ( <= ( + Y6 7 ) Y5 )  )
( or ( <= ( + X5 85 ) X7 )  ( <= ( + X7 48 ) X5 )  ( <= ( + Y5 30 ) Y7 )  ( <= ( + Y7 31 ) Y5 )  )
( or ( <= ( + X5 85 ) X8 )  ( <= ( + X8 75 ) X5 )  ( <= ( + Y5 30 ) Y8 )  ( <= ( + Y8 81 ) Y5 )  )
( or ( <= ( + X6 70 ) X7 )  ( <= ( + X7 48 ) X6 )  ( <= ( + Y6 7 ) Y7 )  ( <= ( + Y7 31 ) Y6 )  )
( or ( <= ( + X6 70 ) X8 )  ( <= ( + X8 75 ) X6 )  ( <= ( + Y6 7 ) Y8 )  ( <= ( + Y8 81 ) Y6 )  )
( or ( <= ( + X7 48 ) X8 )  ( <= ( + X8 75 ) X7 )  ( <= ( + Y7 31 ) Y8 )  ( <= ( + Y8 81 ) Y7 )  )
( >= X0 0)
( <= ( + X0 76) Z)
( >= Y0 0)
( <= ( + Y0 17 ) 100)
( >= X1 0)
( <= ( + X1 53) Z)
( >= Y1 0)
( <= ( + Y1 51 ) 100)
( >= X2 0)
( <= ( + X2 13) Z)
( >= Y2 0)
( <= ( + Y2 100 ) 100)
( >= X3 0)
( <= ( + X3 56) Z)
( >= Y3 0)
( <= ( + Y3 15 ) 100)
( >= X4 0)
( <= ( + X4 61) Z)
( >= Y4 0)
( <= ( + Y4 75 ) 100)
( >= X5 0)
( <= ( + X5 85) Z)
( >= Y5 0)
( <= ( + Y5 30 ) 100)
( >= X6 0)
( <= ( + X6 70) Z)
( >= Y6 0)
( <= ( + Y6 7 ) 100)
( >= X7 0)
( <= ( + X7 48) Z)
( >= Y7 0)
( <= ( + Y7 31 ) 100)
( >= X8 0)
( <= ( + X8 75) Z)
( >= Y8 0)
( <= ( + Y8 81 ) 100)
) )
)(=> $phi $goal))))